; benchmark generated from python API
(set-info :status unknown)
(declare-fun cell_1_2 () Int)
(declare-fun cell_1_4 () Int)
(declare-fun cell_2_9 () Int)
(declare-fun cell_3_1 () Int)
(declare-fun cell_4_8 () Int)
(declare-fun cell_5_3 () Int)
(declare-fun cell_6_6 () Int)
(declare-fun cell_7_2 () Int)
(declare-fun cell_8_7 () Int)
(declare-fun cell_9_5 () Int)
(declare-fun cell_1_1 () Int)
(declare-fun cell_2_1 () Int)
(declare-fun cell_4_1 () Int)
(declare-fun cell_5_1 () Int)
(declare-fun cell_6_1 () Int)
(declare-fun cell_7_1 () Int)
(declare-fun cell_8_1 () Int)
(declare-fun cell_9_1 () Int)
(declare-fun cell_2_2 () Int)
(declare-fun cell_3_2 () Int)
(declare-fun cell_4_2 () Int)
(declare-fun cell_5_2 () Int)
(declare-fun cell_6_2 () Int)
(declare-fun cell_8_2 () Int)
(declare-fun cell_9_2 () Int)
(declare-fun cell_1_3 () Int)
(declare-fun cell_2_3 () Int)
(declare-fun cell_3_3 () Int)
(declare-fun cell_4_3 () Int)
(declare-fun cell_6_3 () Int)
(declare-fun cell_7_3 () Int)
(declare-fun cell_8_3 () Int)
(declare-fun cell_9_3 () Int)
(declare-fun cell_2_4 () Int)
(declare-fun cell_3_4 () Int)
(declare-fun cell_4_4 () Int)
(declare-fun cell_5_4 () Int)
(declare-fun cell_6_4 () Int)
(declare-fun cell_7_4 () Int)
(declare-fun cell_8_4 () Int)
(declare-fun cell_9_4 () Int)
(declare-fun cell_1_5 () Int)
(declare-fun cell_2_5 () Int)
(declare-fun cell_3_5 () Int)
(declare-fun cell_4_5 () Int)
(declare-fun cell_5_5 () Int)
(declare-fun cell_6_5 () Int)
(declare-fun cell_7_5 () Int)
(declare-fun cell_8_5 () Int)
(declare-fun cell_1_6 () Int)
(declare-fun cell_2_6 () Int)
(declare-fun cell_3_6 () Int)
(declare-fun cell_4_6 () Int)
(declare-fun cell_5_6 () Int)
(declare-fun cell_7_6 () Int)
(declare-fun cell_8_6 () Int)
(declare-fun cell_9_6 () Int)
(declare-fun cell_1_7 () Int)
(declare-fun cell_2_7 () Int)
(declare-fun cell_3_7 () Int)
(declare-fun cell_4_7 () Int)
(declare-fun cell_5_7 () Int)
(declare-fun cell_6_7 () Int)
(declare-fun cell_7_7 () Int)
(declare-fun cell_9_7 () Int)
(declare-fun cell_1_8 () Int)
(declare-fun cell_2_8 () Int)
(declare-fun cell_3_8 () Int)
(declare-fun cell_5_8 () Int)
(declare-fun cell_6_8 () Int)
(declare-fun cell_7_8 () Int)
(declare-fun cell_8_8 () Int)
(declare-fun cell_9_8 () Int)
(declare-fun cell_1_9 () Int)
(declare-fun cell_3_9 () Int)
(declare-fun cell_4_9 () Int)
(declare-fun cell_5_9 () Int)
(declare-fun cell_6_9 () Int)
(declare-fun cell_7_9 () Int)
(declare-fun cell_8_9 () Int)
(declare-fun cell_9_9 () Int)
(assert
 (= cell_1_2 2))
(assert
 (= cell_1_4 1))
(assert
 (= cell_2_9 1))
(assert
 (= cell_3_1 1))
(assert
 (= cell_4_8 1))
(assert
 (= cell_5_3 1))
(assert
 (= cell_6_6 1))
(assert
 (= cell_7_2 1))
(assert
 (= cell_8_7 1))
(assert
 (= cell_9_5 1))
(assert
 (let (($x1483 (= cell_1_1 9)))
 (let (($x7954 (= cell_1_1 8)))
 (let (($x8322 (= cell_1_1 7)))
 (let (($x5979 (= cell_1_1 6)))
 (let (($x3360 (= cell_1_1 5)))
 (let (($x7182 (= cell_1_1 4)))
 (let (($x2719 (= cell_1_1 3)))
 (let (($x8763 (= cell_1_1 2)))
 (let (($x5486 (= cell_1_1 1)))
 (or $x5486 $x8763 $x2719 $x7182 $x3360 $x5979 $x8322 $x7954 $x1483)))))))))))
(assert
 (let (($x9613 (= cell_2_1 9)))
 (let (($x3268 (= cell_2_1 8)))
 (let (($x9947 (= cell_2_1 7)))
 (let (($x410 (= cell_2_1 6)))
 (let (($x2427 (= cell_2_1 5)))
 (let (($x4743 (= cell_2_1 4)))
 (let (($x4799 (= cell_2_1 3)))
 (let (($x3462 (= cell_2_1 2)))
 (let (($x2103 (= cell_2_1 1)))
 (or $x2103 $x3462 $x4799 $x4743 $x2427 $x410 $x9947 $x3268 $x9613)))))))))))
(assert
 (let (($x6004 (= cell_3_1 1)))
 (or $x6004 (= cell_3_1 2) (= cell_3_1 3) (= cell_3_1 4) (= cell_3_1 5) (= cell_3_1 6) (= cell_3_1 7) (= cell_3_1 8) (= cell_3_1 9))))
(assert
 (let (($x6196 (= cell_4_1 9)))
 (let (($x103 (= cell_4_1 8)))
 (let (($x7030 (= cell_4_1 7)))
 (let (($x3409 (= cell_4_1 6)))
 (let (($x1300 (= cell_4_1 5)))
 (let (($x7098 (= cell_4_1 4)))
 (let (($x9535 (= cell_4_1 3)))
 (let (($x9489 (= cell_4_1 2)))
 (let (($x789 (= cell_4_1 1)))
 (or $x789 $x9489 $x9535 $x7098 $x1300 $x3409 $x7030 $x103 $x6196)))))))))))
(assert
 (let (($x7788 (= cell_5_1 9)))
 (let (($x8080 (= cell_5_1 8)))
 (let (($x1404 (= cell_5_1 7)))
 (let (($x4054 (= cell_5_1 6)))
 (let (($x4473 (= cell_5_1 5)))
 (let (($x4703 (= cell_5_1 4)))
 (let (($x3263 (= cell_5_1 3)))
 (let (($x5191 (= cell_5_1 2)))
 (let (($x9560 (= cell_5_1 1)))
 (or $x9560 $x5191 $x3263 $x4703 $x4473 $x4054 $x1404 $x8080 $x7788)))))))))))
(assert
 (let (($x8515 (= cell_6_1 9)))
 (let (($x3813 (= cell_6_1 8)))
 (let (($x9805 (= cell_6_1 7)))
 (let (($x1812 (= cell_6_1 6)))
 (let (($x9424 (= cell_6_1 5)))
 (let (($x5609 (= cell_6_1 4)))
 (let (($x5540 (= cell_6_1 3)))
 (let (($x7251 (= cell_6_1 2)))
 (let (($x7570 (= cell_6_1 1)))
 (or $x7570 $x7251 $x5540 $x5609 $x9424 $x1812 $x9805 $x3813 $x8515)))))))))))
(assert
 (let (($x9204 (= cell_7_1 9)))
 (let (($x6976 (= cell_7_1 8)))
 (let (($x2904 (= cell_7_1 7)))
 (let (($x8897 (= cell_7_1 6)))
 (let (($x2249 (= cell_7_1 5)))
 (let (($x2299 (= cell_7_1 4)))
 (let (($x4343 (= cell_7_1 3)))
 (let (($x5679 (= cell_7_1 2)))
 (let (($x5732 (= cell_7_1 1)))
 (or $x5732 $x5679 $x4343 $x2299 $x2249 $x8897 $x2904 $x6976 $x9204)))))))))))
(assert
 (let (($x1888 (= cell_8_1 9)))
 (let (($x9737 (= cell_8_1 8)))
 (let (($x8850 (= cell_8_1 7)))
 (let (($x8843 (= cell_8_1 6)))
 (let (($x1741 (= cell_8_1 5)))
 (let (($x5898 (= cell_8_1 4)))
 (let (($x7783 (= cell_8_1 3)))
 (let (($x4414 (= cell_8_1 2)))
 (let (($x8730 (= cell_8_1 1)))
 (or $x8730 $x4414 $x7783 $x5898 $x1741 $x8843 $x8850 $x9737 $x1888)))))))))))
(assert
 (let (($x6324 (= cell_9_1 9)))
 (let (($x3121 (= cell_9_1 8)))
 (let (($x5212 (= cell_9_1 7)))
 (let (($x3739 (= cell_9_1 6)))
 (let (($x6048 (= cell_9_1 5)))
 (let (($x5660 (= cell_9_1 4)))
 (let (($x4437 (= cell_9_1 3)))
 (let (($x5422 (= cell_9_1 2)))
 (let (($x9634 (= cell_9_1 1)))
 (or $x9634 $x5422 $x4437 $x5660 $x6048 $x3739 $x5212 $x3121 $x6324)))))))))))
(assert
 (let (($x2745 (= cell_1_2 2)))
 (or (= cell_1_2 1) $x2745 (= cell_1_2 3) (= cell_1_2 4) (= cell_1_2 5) (= cell_1_2 6) (= cell_1_2 7) (= cell_1_2 8) (= cell_1_2 9))))
(assert
 (let (($x7704 (= cell_2_2 9)))
 (let (($x9540 (= cell_2_2 8)))
 (let (($x8419 (= cell_2_2 7)))
 (let (($x6369 (= cell_2_2 6)))
 (let (($x5649 (= cell_2_2 5)))
 (let (($x1993 (= cell_2_2 4)))
 (let (($x9642 (= cell_2_2 3)))
 (let (($x9519 (= cell_2_2 2)))
 (let (($x1085 (= cell_2_2 1)))
 (or $x1085 $x9519 $x9642 $x1993 $x5649 $x6369 $x8419 $x9540 $x7704)))))))))))
(assert
 (let (($x10178 (= cell_3_2 9)))
 (let (($x9490 (= cell_3_2 8)))
 (let (($x1547 (= cell_3_2 7)))
 (let (($x417 (= cell_3_2 6)))
 (let (($x5441 (= cell_3_2 5)))
 (let (($x6917 (= cell_3_2 4)))
 (let (($x9308 (= cell_3_2 3)))
 (let (($x4739 (= cell_3_2 2)))
 (let (($x602 (= cell_3_2 1)))
 (or $x602 $x4739 $x9308 $x6917 $x5441 $x417 $x1547 $x9490 $x10178)))))))))))
(assert
 (let (($x1672 (= cell_4_2 9)))
 (let (($x2259 (= cell_4_2 8)))
 (let (($x7446 (= cell_4_2 7)))
 (let (($x757 (= cell_4_2 6)))
 (let (($x8420 (= cell_4_2 5)))
 (let (($x3818 (= cell_4_2 4)))
 (let (($x4096 (= cell_4_2 3)))
 (let (($x6824 (= cell_4_2 2)))
 (let (($x391 (= cell_4_2 1)))
 (or $x391 $x6824 $x4096 $x3818 $x8420 $x757 $x7446 $x2259 $x1672)))))))))))
(assert
 (let (($x2757 (= cell_5_2 9)))
 (let (($x10131 (= cell_5_2 8)))
 (let (($x8585 (= cell_5_2 7)))
 (let (($x5164 (= cell_5_2 6)))
 (let (($x3893 (= cell_5_2 5)))
 (let (($x9950 (= cell_5_2 4)))
 (let (($x9480 (= cell_5_2 3)))
 (let (($x1998 (= cell_5_2 2)))
 (let (($x1232 (= cell_5_2 1)))
 (or $x1232 $x1998 $x9480 $x9950 $x3893 $x5164 $x8585 $x10131 $x2757)))))))))))
(assert
 (let (($x7996 (= cell_6_2 9)))
 (let (($x8474 (= cell_6_2 8)))
 (let (($x2447 (= cell_6_2 7)))
 (let (($x7580 (= cell_6_2 6)))
 (let (($x3282 (= cell_6_2 5)))
 (let (($x1754 (= cell_6_2 4)))
 (let (($x8189 (= cell_6_2 3)))
 (let (($x10041 (= cell_6_2 2)))
 (let (($x3364 (= cell_6_2 1)))
 (or $x3364 $x10041 $x8189 $x1754 $x3282 $x7580 $x2447 $x8474 $x7996)))))))))))
(assert
 (let (($x3982 (= cell_7_2 1)))
 (or $x3982 (= cell_7_2 2) (= cell_7_2 3) (= cell_7_2 4) (= cell_7_2 5) (= cell_7_2 6) (= cell_7_2 7) (= cell_7_2 8) (= cell_7_2 9))))
(assert
 (let (($x3646 (= cell_8_2 9)))
 (let (($x7582 (= cell_8_2 8)))
 (let (($x6712 (= cell_8_2 7)))
 (let (($x5456 (= cell_8_2 6)))
 (let (($x4987 (= cell_8_2 5)))
 (let (($x9716 (= cell_8_2 4)))
 (let (($x8310 (= cell_8_2 3)))
 (let (($x675 (= cell_8_2 2)))
 (let (($x7484 (= cell_8_2 1)))
 (or $x7484 $x675 $x8310 $x9716 $x4987 $x5456 $x6712 $x7582 $x3646)))))))))))
(assert
 (let (($x8994 (= cell_9_2 9)))
 (let (($x9670 (= cell_9_2 8)))
 (let (($x8747 (= cell_9_2 7)))
 (let (($x222 (= cell_9_2 6)))
 (let (($x1689 (= cell_9_2 5)))
 (let (($x5919 (= cell_9_2 4)))
 (let (($x2168 (= cell_9_2 3)))
 (let (($x1550 (= cell_9_2 2)))
 (let (($x6051 (= cell_9_2 1)))
 (or $x6051 $x1550 $x2168 $x5919 $x1689 $x222 $x8747 $x9670 $x8994)))))))))))
(assert
 (let (($x4895 (= cell_1_3 9)))
 (let (($x5424 (= cell_1_3 8)))
 (let (($x7916 (= cell_1_3 7)))
 (let (($x7854 (= cell_1_3 6)))
 (let (($x3797 (= cell_1_3 5)))
 (let (($x509 (= cell_1_3 4)))
 (let (($x4277 (= cell_1_3 3)))
 (let (($x7 (= cell_1_3 2)))
 (let (($x1561 (= cell_1_3 1)))
 (or $x1561 $x7 $x4277 $x509 $x3797 $x7854 $x7916 $x5424 $x4895)))))))))))
(assert
 (let (($x7973 (= cell_2_3 9)))
 (let (($x2832 (= cell_2_3 8)))
 (let (($x2990 (= cell_2_3 7)))
 (let (($x2967 (= cell_2_3 6)))
 (let (($x8260 (= cell_2_3 5)))
 (let (($x1747 (= cell_2_3 4)))
 (let (($x2357 (= cell_2_3 3)))
 (let (($x9500 (= cell_2_3 2)))
 (let (($x4852 (= cell_2_3 1)))
 (or $x4852 $x9500 $x2357 $x1747 $x8260 $x2967 $x2990 $x2832 $x7973)))))))))))
(assert
 (let (($x4029 (= cell_3_3 9)))
 (let (($x9449 (= cell_3_3 8)))
 (let (($x4071 (= cell_3_3 7)))
 (let (($x8277 (= cell_3_3 6)))
 (let (($x7056 (= cell_3_3 5)))
 (let (($x517 (= cell_3_3 4)))
 (let (($x1348 (= cell_3_3 3)))
 (let (($x5951 (= cell_3_3 2)))
 (let (($x3863 (= cell_3_3 1)))
 (or $x3863 $x5951 $x1348 $x517 $x7056 $x8277 $x4071 $x9449 $x4029)))))))))))
(assert
 (let (($x9523 (= cell_4_3 9)))
 (let (($x9935 (= cell_4_3 8)))
 (let (($x1128 (= cell_4_3 7)))
 (let (($x4764 (= cell_4_3 6)))
 (let (($x4184 (= cell_4_3 5)))
 (let (($x10026 (= cell_4_3 4)))
 (let (($x2911 (= cell_4_3 3)))
 (let (($x3607 (= cell_4_3 2)))
 (let (($x4629 (= cell_4_3 1)))
 (or $x4629 $x3607 $x2911 $x10026 $x4184 $x4764 $x1128 $x9935 $x9523)))))))))))
(assert
 (let (($x505 (= cell_5_3 1)))
 (or $x505 (= cell_5_3 2) (= cell_5_3 3) (= cell_5_3 4) (= cell_5_3 5) (= cell_5_3 6) (= cell_5_3 7) (= cell_5_3 8) (= cell_5_3 9))))
(assert
 (let (($x3382 (= cell_6_3 9)))
 (let (($x1295 (= cell_6_3 8)))
 (let (($x2414 (= cell_6_3 7)))
 (let (($x8473 (= cell_6_3 6)))
 (let (($x1566 (= cell_6_3 5)))
 (let (($x7021 (= cell_6_3 4)))
 (let (($x3915 (= cell_6_3 3)))
 (let (($x3501 (= cell_6_3 2)))
 (let (($x5788 (= cell_6_3 1)))
 (or $x5788 $x3501 $x3915 $x7021 $x1566 $x8473 $x2414 $x1295 $x3382)))))))))))
(assert
 (let (($x6396 (= cell_7_3 1)))
 (or $x6396 (= cell_7_3 2) (= cell_7_3 3) (= cell_7_3 4) (= cell_7_3 5) (= cell_7_3 6) (= cell_7_3 7) (= cell_7_3 8) (= cell_7_3 9))))
(assert
 (let (($x7468 (= cell_8_3 9)))
 (let (($x446 (= cell_8_3 8)))
 (let (($x8291 (= cell_8_3 7)))
 (let (($x78 (= cell_8_3 6)))
 (let (($x8700 (= cell_8_3 5)))
 (let (($x7758 (= cell_8_3 4)))
 (let (($x7026 (= cell_8_3 3)))
 (let (($x4265 (= cell_8_3 2)))
 (let (($x2949 (= cell_8_3 1)))
 (or $x2949 $x4265 $x7026 $x7758 $x8700 $x78 $x8291 $x446 $x7468)))))))))))
(assert
 (let (($x868 (= cell_9_3 9)))
 (let (($x2297 (= cell_9_3 8)))
 (let (($x8990 (= cell_9_3 7)))
 (let (($x5373 (= cell_9_3 6)))
 (let (($x9132 (= cell_9_3 5)))
 (let (($x4243 (= cell_9_3 4)))
 (let (($x6166 (= cell_9_3 3)))
 (let (($x8879 (= cell_9_3 2)))
 (let (($x2828 (= cell_9_3 1)))
 (or $x2828 $x8879 $x6166 $x4243 $x9132 $x5373 $x8990 $x2297 $x868)))))))))))
(assert
 (let (($x1273 (= cell_1_4 1)))
 (or $x1273 (= cell_1_4 2) (= cell_1_4 3) (= cell_1_4 4) (= cell_1_4 5) (= cell_1_4 6) (= cell_1_4 7) (= cell_1_4 8) (= cell_1_4 9))))
(assert
 (let (($x8447 (= cell_2_4 9)))
 (let (($x8821 (= cell_2_4 8)))
 (let (($x9199 (= cell_2_4 7)))
 (let (($x9755 (= cell_2_4 6)))
 (let (($x2042 (= cell_2_4 5)))
 (let (($x8222 (= cell_2_4 4)))
 (let (($x2303 (= cell_2_4 3)))
 (let (($x7358 (= cell_2_4 2)))
 (let (($x7244 (= cell_2_4 1)))
 (or $x7244 $x7358 $x2303 $x8222 $x2042 $x9755 $x9199 $x8821 $x8447)))))))))))
(assert
 (let (($x5160 (= cell_3_4 2)))
 (let (($x4137 (= cell_3_4 1)))
 (or $x4137 $x5160 (= cell_3_4 3) (= cell_3_4 4) (= cell_3_4 5) (= cell_3_4 6) (= cell_3_4 7) (= cell_3_4 8) (= cell_3_4 9)))))
(assert
 (let (($x4385 (= cell_4_4 9)))
 (let (($x6139 (= cell_4_4 8)))
 (let (($x4917 (= cell_4_4 7)))
 (let (($x5640 (= cell_4_4 6)))
 (let (($x5832 (= cell_4_4 5)))
 (let (($x6277 (= cell_4_4 4)))
 (let (($x6799 (= cell_4_4 3)))
 (let (($x7594 (= cell_4_4 2)))
 (let (($x3222 (= cell_4_4 1)))
 (or $x3222 $x7594 $x6799 $x6277 $x5832 $x5640 $x4917 $x6139 $x4385)))))))))))
(assert
 (let (($x3910 (= cell_5_4 9)))
 (let (($x7461 (= cell_5_4 8)))
 (let (($x7434 (= cell_5_4 7)))
 (let (($x209 (= cell_5_4 6)))
 (let (($x8450 (= cell_5_4 5)))
 (let (($x7413 (= cell_5_4 4)))
 (let (($x1306 (= cell_5_4 3)))
 (let (($x8149 (= cell_5_4 2)))
 (let (($x5133 (= cell_5_4 1)))
 (or $x5133 $x8149 $x1306 $x7413 $x8450 $x209 $x7434 $x7461 $x3910)))))))))))
(assert
 (let (($x8706 (= cell_6_4 9)))
 (let (($x4372 (= cell_6_4 8)))
 (let (($x9486 (= cell_6_4 7)))
 (let (($x7104 (= cell_6_4 6)))
 (let (($x620 (= cell_6_4 5)))
 (let (($x6850 (= cell_6_4 4)))
 (let (($x6451 (= cell_6_4 3)))
 (let (($x1642 (= cell_6_4 2)))
 (let (($x7325 (= cell_6_4 1)))
 (or $x7325 $x1642 $x6451 $x6850 $x620 $x7104 $x9486 $x4372 $x8706)))))))))))
(assert
 (let (($x2988 (= cell_7_4 9)))
 (let (($x2142 (= cell_7_4 8)))
 (let (($x901 (= cell_7_4 7)))
 (let (($x8537 (= cell_7_4 6)))
 (let (($x3559 (= cell_7_4 5)))
 (let (($x4844 (= cell_7_4 4)))
 (let (($x8002 (= cell_7_4 3)))
 (let (($x5203 (= cell_7_4 2)))
 (let (($x1137 (= cell_7_4 1)))
 (or $x1137 $x5203 $x8002 $x4844 $x3559 $x8537 $x901 $x2142 $x2988)))))))))))
(assert
 (let (($x7715 (= cell_8_4 9)))
 (let (($x9639 (= cell_8_4 8)))
 (let (($x5170 (= cell_8_4 7)))
 (let (($x8663 (= cell_8_4 6)))
 (let (($x719 (= cell_8_4 5)))
 (let (($x5985 (= cell_8_4 4)))
 (let (($x760 (= cell_8_4 3)))
 (let (($x1657 (= cell_8_4 2)))
 (let (($x6715 (= cell_8_4 1)))
 (or $x6715 $x1657 $x760 $x5985 $x719 $x8663 $x5170 $x9639 $x7715)))))))))))
(assert
 (let (($x8627 (= cell_9_4 9)))
 (let (($x7683 (= cell_9_4 8)))
 (let (($x624 (= cell_9_4 7)))
 (let (($x5245 (= cell_9_4 6)))
 (let (($x6924 (= cell_9_4 5)))
 (let (($x9956 (= cell_9_4 4)))
 (let (($x5712 (= cell_9_4 3)))
 (let (($x7239 (= cell_9_4 2)))
 (let (($x9928 (= cell_9_4 1)))
 (or $x9928 $x7239 $x5712 $x9956 $x6924 $x5245 $x624 $x7683 $x8627)))))))))))
(assert
 (let (($x3916 (= cell_1_5 9)))
 (let (($x8295 (= cell_1_5 8)))
 (let (($x7442 (= cell_1_5 7)))
 (let (($x9910 (= cell_1_5 6)))
 (let (($x4516 (= cell_1_5 5)))
 (let (($x2617 (= cell_1_5 4)))
 (let (($x6484 (= cell_1_5 3)))
 (let (($x4554 (= cell_1_5 2)))
 (let (($x6212 (= cell_1_5 1)))
 (or $x6212 $x4554 $x6484 $x2617 $x4516 $x9910 $x7442 $x8295 $x3916)))))))))))
(assert
 (let (($x3642 (= cell_2_5 9)))
 (let (($x2589 (= cell_2_5 8)))
 (let (($x3580 (= cell_2_5 7)))
 (let (($x9198 (= cell_2_5 6)))
 (let (($x2534 (= cell_2_5 5)))
 (let (($x2921 (= cell_2_5 4)))
 (let (($x7328 (= cell_2_5 3)))
 (let (($x5770 (= cell_2_5 2)))
 (let (($x2332 (= cell_2_5 1)))
 (or $x2332 $x5770 $x7328 $x2921 $x2534 $x9198 $x3580 $x2589 $x3642)))))))))))
(assert
 (let (($x4132 (= cell_3_5 9)))
 (let (($x2466 (= cell_3_5 8)))
 (let (($x7709 (= cell_3_5 7)))
 (let (($x486 (= cell_3_5 6)))
 (let (($x4157 (= cell_3_5 5)))
 (let (($x9764 (= cell_3_5 4)))
 (let (($x1076 (= cell_3_5 3)))
 (let (($x306 (= cell_3_5 2)))
 (let (($x8469 (= cell_3_5 1)))
 (or $x8469 $x306 $x1076 $x9764 $x4157 $x486 $x7709 $x2466 $x4132)))))))))))
(assert
 (let (($x2742 (= cell_4_5 9)))
 (let (($x7304 (= cell_4_5 8)))
 (let (($x2113 (= cell_4_5 7)))
 (let (($x1789 (= cell_4_5 6)))
 (let (($x3919 (= cell_4_5 5)))
 (let (($x176 (= cell_4_5 4)))
 (let (($x4064 (= cell_4_5 3)))
 (let (($x8636 (= cell_4_5 2)))
 (let (($x3280 (= cell_4_5 1)))
 (or $x3280 $x8636 $x4064 $x176 $x3919 $x1789 $x2113 $x7304 $x2742)))))))))))
(assert
 (let (($x8631 (= cell_5_5 9)))
 (let (($x4724 (= cell_5_5 8)))
 (let (($x8615 (= cell_5_5 7)))
 (let (($x9028 (= cell_5_5 6)))
 (let (($x4922 (= cell_5_5 5)))
 (let (($x3385 (= cell_5_5 4)))
 (let (($x9144 (= cell_5_5 3)))
 (let (($x2442 (= cell_5_5 2)))
 (let (($x2210 (= cell_5_5 1)))
 (or $x2210 $x2442 $x9144 $x3385 $x4922 $x9028 $x8615 $x4724 $x8631)))))))))))
(assert
 (let (($x1193 (= cell_6_5 9)))
 (let (($x7618 (= cell_6_5 8)))
 (let (($x6134 (= cell_6_5 7)))
 (let (($x131 (= cell_6_5 6)))
 (let (($x6450 (= cell_6_5 5)))
 (let (($x4249 (= cell_6_5 4)))
 (let (($x138 (= cell_6_5 3)))
 (let (($x8334 (= cell_6_5 2)))
 (let (($x4329 (= cell_6_5 1)))
 (or $x4329 $x8334 $x138 $x4249 $x6450 $x131 $x6134 $x7618 $x1193)))))))))))
(assert
 (let (($x733 (= cell_7_5 9)))
 (let (($x3057 (= cell_7_5 8)))
 (let (($x3090 (= cell_7_5 7)))
 (let (($x4760 (= cell_7_5 6)))
 (let (($x3014 (= cell_7_5 5)))
 (let (($x6544 (= cell_7_5 4)))
 (let (($x93 (= cell_7_5 3)))
 (let (($x7855 (= cell_7_5 2)))
 (let (($x1477 (= cell_7_5 1)))
 (or $x1477 $x7855 $x93 $x6544 $x3014 $x4760 $x3090 $x3057 $x733)))))))))))
(assert
 (let (($x7795 (= cell_8_5 9)))
 (let (($x6748 (= cell_8_5 8)))
 (let (($x8321 (= cell_8_5 7)))
 (let (($x9451 (= cell_8_5 6)))
 (let (($x313 (= cell_8_5 5)))
 (let (($x5616 (= cell_8_5 4)))
 (let (($x9638 (= cell_8_5 3)))
 (let (($x7817 (= cell_8_5 2)))
 (let (($x8829 (= cell_8_5 1)))
 (or $x8829 $x7817 $x9638 $x5616 $x313 $x9451 $x8321 $x6748 $x7795)))))))))))
(assert
 (let (($x8433 (= cell_9_5 1)))
 (or $x8433 (= cell_9_5 2) (= cell_9_5 3) (= cell_9_5 4) (= cell_9_5 5) (= cell_9_5 6) (= cell_9_5 7) (= cell_9_5 8) (= cell_9_5 9))))
(assert
 (let (($x6509 (= cell_1_6 9)))
 (let (($x8629 (= cell_1_6 8)))
 (let (($x4691 (= cell_1_6 7)))
 (let (($x3550 (= cell_1_6 6)))
 (let (($x9738 (= cell_1_6 5)))
 (let (($x1673 (= cell_1_6 4)))
 (let (($x8540 (= cell_1_6 3)))
 (let (($x3947 (= cell_1_6 2)))
 (let (($x9058 (= cell_1_6 1)))
 (or $x9058 $x3947 $x8540 $x1673 $x9738 $x3550 $x4691 $x8629 $x6509)))))))))))
(assert
 (let (($x747 (= cell_2_6 9)))
 (let (($x6389 (= cell_2_6 8)))
 (let (($x956 (= cell_2_6 7)))
 (let (($x6151 (= cell_2_6 6)))
 (let (($x1312 (= cell_2_6 5)))
 (let (($x7828 (= cell_2_6 4)))
 (let (($x4573 (= cell_2_6 3)))
 (let (($x3418 (= cell_2_6 2)))
 (let (($x6264 (= cell_2_6 1)))
 (or $x6264 $x3418 $x4573 $x7828 $x1312 $x6151 $x956 $x6389 $x747)))))))))))
(assert
 (let (($x6630 (= cell_3_6 9)))
 (let (($x1821 (= cell_3_6 8)))
 (let (($x7230 (= cell_3_6 7)))
 (let (($x5050 (= cell_3_6 6)))
 (let (($x3356 (= cell_3_6 5)))
 (let (($x9619 (= cell_3_6 4)))
 (let (($x5394 (= cell_3_6 3)))
 (let (($x7260 (= cell_3_6 2)))
 (let (($x9021 (= cell_3_6 1)))
 (or $x9021 $x7260 $x5394 $x9619 $x3356 $x5050 $x7230 $x1821 $x6630)))))))))))
(assert
 (let (($x5500 (= cell_4_6 9)))
 (let (($x2002 (= cell_4_6 8)))
 (let (($x1174 (= cell_4_6 7)))
 (let (($x7880 (= cell_4_6 6)))
 (let (($x5889 (= cell_4_6 5)))
 (let (($x5465 (= cell_4_6 4)))
 (let (($x2471 (= cell_4_6 3)))
 (let (($x9100 (= cell_4_6 2)))
 (let (($x4352 (= cell_4_6 1)))
 (or $x4352 $x9100 $x2471 $x5465 $x5889 $x7880 $x1174 $x2002 $x5500)))))))))))
(assert
 (let (($x4848 (= cell_5_6 9)))
 (let (($x3844 (= cell_5_6 8)))
 (let (($x1396 (= cell_5_6 7)))
 (let (($x1948 (= cell_5_6 6)))
 (let (($x1916 (= cell_5_6 5)))
 (let (($x9925 (= cell_5_6 4)))
 (let (($x609 (= cell_5_6 3)))
 (let (($x4889 (= cell_5_6 2)))
 (let (($x9982 (= cell_5_6 1)))
 (or $x9982 $x4889 $x609 $x9925 $x1916 $x1948 $x1396 $x3844 $x4848)))))))))))
(assert
 (let (($x1403 (= cell_6_6 1)))
 (or $x1403 (= cell_6_6 2) (= cell_6_6 3) (= cell_6_6 4) (= cell_6_6 5) (= cell_6_6 6) (= cell_6_6 7) (= cell_6_6 8) (= cell_6_6 9))))
(assert
 (let (($x7986 (= cell_7_6 9)))
 (let (($x7938 (= cell_7_6 8)))
 (let (($x8639 (= cell_7_6 7)))
 (let (($x10052 (= cell_7_6 6)))
 (let (($x2908 (= cell_7_6 5)))
 (let (($x3521 (= cell_7_6 4)))
 (let (($x9213 (= cell_7_6 3)))
 (let (($x251 (= cell_7_6 2)))
 (let (($x7363 (= cell_7_6 1)))
 (or $x7363 $x251 $x9213 $x3521 $x2908 $x10052 $x8639 $x7938 $x7986)))))))))))
(assert
 (let (($x79 (= cell_8_6 9)))
 (let (($x8523 (= cell_8_6 8)))
 (let (($x5524 (= cell_8_6 7)))
 (let (($x7135 (= cell_8_6 6)))
 (let (($x4447 (= cell_8_6 5)))
 (let (($x7114 (= cell_8_6 4)))
 (let (($x5405 (= cell_8_6 3)))
 (let (($x5955 (= cell_8_6 2)))
 (let (($x2555 (= cell_8_6 1)))
 (or $x2555 $x5955 $x5405 $x7114 $x4447 $x7135 $x5524 $x8523 $x79)))))))))))
(assert
 (let (($x9466 (= cell_9_6 1)))
 (or $x9466 (= cell_9_6 2) (= cell_9_6 3) (= cell_9_6 4) (= cell_9_6 5) (= cell_9_6 6) (= cell_9_6 7) (= cell_9_6 8) (= cell_9_6 9))))
(assert
 (let (($x570 (= cell_1_7 9)))
 (let (($x688 (= cell_1_7 8)))
 (let (($x1094 (= cell_1_7 7)))
 (let (($x683 (= cell_1_7 6)))
 (let (($x260 (= cell_1_7 5)))
 (let (($x9918 (= cell_1_7 4)))
 (let (($x9463 (= cell_1_7 3)))
 (let (($x5981 (= cell_1_7 2)))
 (let (($x5571 (= cell_1_7 1)))
 (or $x5571 $x5981 $x9463 $x9918 $x260 $x683 $x1094 $x688 $x570)))))))))))
(assert
 (let (($x2729 (= cell_2_7 9)))
 (let (($x5361 (= cell_2_7 8)))
 (let (($x7140 (= cell_2_7 7)))
 (let (($x7035 (= cell_2_7 6)))
 (let (($x2171 (= cell_2_7 5)))
 (let (($x9736 (= cell_2_7 4)))
 (let (($x6102 (= cell_2_7 3)))
 (let (($x9633 (= cell_2_7 2)))
 (let (($x4332 (= cell_2_7 1)))
 (or $x4332 $x9633 $x6102 $x9736 $x2171 $x7035 $x7140 $x5361 $x2729)))))))))))
(assert
 (let (($x10094 (= cell_3_7 9)))
 (let (($x7819 (= cell_3_7 8)))
 (let (($x5200 (= cell_3_7 7)))
 (let (($x9429 (= cell_3_7 6)))
 (let (($x5402 (= cell_3_7 5)))
 (let (($x6372 (= cell_3_7 4)))
 (let (($x1097 (= cell_3_7 3)))
 (let (($x5792 (= cell_3_7 2)))
 (let (($x707 (= cell_3_7 1)))
 (or $x707 $x5792 $x1097 $x6372 $x5402 $x9429 $x5200 $x7819 $x10094)))))))))))
(assert
 (let (($x6306 (= cell_4_7 9)))
 (let (($x1355 (= cell_4_7 8)))
 (let (($x7494 (= cell_4_7 7)))
 (let (($x2397 (= cell_4_7 6)))
 (let (($x8732 (= cell_4_7 5)))
 (let (($x3117 (= cell_4_7 4)))
 (let (($x9434 (= cell_4_7 3)))
 (let (($x5287 (= cell_4_7 2)))
 (let (($x9709 (= cell_4_7 1)))
 (or $x9709 $x5287 $x9434 $x3117 $x8732 $x2397 $x7494 $x1355 $x6306)))))))))))
(assert
 (let (($x9528 (= cell_5_7 9)))
 (let (($x7574 (= cell_5_7 8)))
 (let (($x7705 (= cell_5_7 7)))
 (let (($x107 (= cell_5_7 6)))
 (let (($x10034 (= cell_5_7 5)))
 (let (($x1626 (= cell_5_7 4)))
 (let (($x8003 (= cell_5_7 3)))
 (let (($x644 (= cell_5_7 2)))
 (let (($x4741 (= cell_5_7 1)))
 (or $x4741 $x644 $x8003 $x1626 $x10034 $x107 $x7705 $x7574 $x9528)))))))))))
(assert
 (let (($x539 (= cell_6_7 9)))
 (let (($x3981 (= cell_6_7 8)))
 (let (($x2675 (= cell_6_7 7)))
 (let (($x9102 (= cell_6_7 6)))
 (let (($x4216 (= cell_6_7 5)))
 (let (($x774 (= cell_6_7 4)))
 (let (($x7352 (= cell_6_7 3)))
 (let (($x6344 (= cell_6_7 2)))
 (let (($x8100 (= cell_6_7 1)))
 (or $x8100 $x6344 $x7352 $x774 $x4216 $x9102 $x2675 $x3981 $x539)))))))))))
(assert
 (let (($x5610 (= cell_7_7 9)))
 (let (($x1263 (= cell_7_7 8)))
 (let (($x1309 (= cell_7_7 7)))
 (let (($x4067 (= cell_7_7 6)))
 (let (($x6833 (= cell_7_7 5)))
 (let (($x9142 (= cell_7_7 4)))
 (let (($x514 (= cell_7_7 3)))
 (let (($x5119 (= cell_7_7 2)))
 (let (($x4065 (= cell_7_7 1)))
 (or $x4065 $x5119 $x514 $x9142 $x6833 $x4067 $x1309 $x1263 $x5610)))))))))))
(assert
 (let (($x7727 (= cell_8_7 1)))
 (or $x7727 (= cell_8_7 2) (= cell_8_7 3) (= cell_8_7 4) (= cell_8_7 5) (= cell_8_7 6) (= cell_8_7 7) (= cell_8_7 8) (= cell_8_7 9))))
(assert
 (let (($x1419 (= cell_9_7 1)))
 (or $x1419 (= cell_9_7 2) (= cell_9_7 3) (= cell_9_7 4) (= cell_9_7 5) (= cell_9_7 6) (= cell_9_7 7) (= cell_9_7 8) (= cell_9_7 9))))
(assert
 (let (($x1711 (= cell_1_8 9)))
 (let (($x2679 (= cell_1_8 8)))
 (let (($x7130 (= cell_1_8 7)))
 (let (($x3637 (= cell_1_8 6)))
 (let (($x1608 (= cell_1_8 5)))
 (let (($x5908 (= cell_1_8 4)))
 (let (($x4705 (= cell_1_8 3)))
 (let (($x3112 (= cell_1_8 2)))
 (let (($x3514 (= cell_1_8 1)))
 (or $x3514 $x3112 $x4705 $x5908 $x1608 $x3637 $x7130 $x2679 $x1711)))))))))))
(assert
 (let (($x1540 (= cell_2_8 9)))
 (let (($x2188 (= cell_2_8 8)))
 (let (($x6793 (= cell_2_8 7)))
 (let (($x315 (= cell_2_8 6)))
 (let (($x7443 (= cell_2_8 5)))
 (let (($x3262 (= cell_2_8 4)))
 (let (($x4758 (= cell_2_8 3)))
 (let (($x7510 (= cell_2_8 2)))
 (let (($x761 (= cell_2_8 1)))
 (or $x761 $x7510 $x4758 $x3262 $x7443 $x315 $x6793 $x2188 $x1540)))))))))))
(assert
 (let (($x6963 (= cell_3_8 9)))
 (let (($x5078 (= cell_3_8 8)))
 (let (($x4869 (= cell_3_8 7)))
 (let (($x1990 (= cell_3_8 6)))
 (let (($x3023 (= cell_3_8 5)))
 (let (($x10176 (= cell_3_8 4)))
 (let (($x245 (= cell_3_8 3)))
 (let (($x6479 (= cell_3_8 2)))
 (let (($x2436 (= cell_3_8 1)))
 (or $x2436 $x6479 $x245 $x10176 $x3023 $x1990 $x4869 $x5078 $x6963)))))))))))
(assert
 (let (($x2698 (= cell_4_8 1)))
 (or $x2698 (= cell_4_8 2) (= cell_4_8 3) (= cell_4_8 4) (= cell_4_8 5) (= cell_4_8 6) (= cell_4_8 7) (= cell_4_8 8) (= cell_4_8 9))))
(assert
 (let (($x7995 (= cell_5_8 1)))
 (or $x7995 (= cell_5_8 2) (= cell_5_8 3) (= cell_5_8 4) (= cell_5_8 5) (= cell_5_8 6) (= cell_5_8 7) (= cell_5_8 8) (= cell_5_8 9))))
(assert
 (let (($x5414 (= cell_6_8 1)))
 (or $x5414 (= cell_6_8 2) (= cell_6_8 3) (= cell_6_8 4) (= cell_6_8 5) (= cell_6_8 6) (= cell_6_8 7) (= cell_6_8 8) (= cell_6_8 9))))
(assert
 (let (($x4727 (= cell_7_8 9)))
 (let (($x9558 (= cell_7_8 8)))
 (let (($x6266 (= cell_7_8 7)))
 (let (($x1221 (= cell_7_8 6)))
 (let (($x927 (= cell_7_8 5)))
 (let (($x3627 (= cell_7_8 4)))
 (let (($x1849 (= cell_7_8 3)))
 (let (($x4544 (= cell_7_8 2)))
 (let (($x9278 (= cell_7_8 1)))
 (or $x9278 $x4544 $x1849 $x3627 $x927 $x1221 $x6266 $x9558 $x4727)))))))))))
(assert
 (let (($x5562 (= cell_8_8 1)))
 (or $x5562 (= cell_8_8 2) (= cell_8_8 3) (= cell_8_8 4) (= cell_8_8 5) (= cell_8_8 6) (= cell_8_8 7) (= cell_8_8 8) (= cell_8_8 9))))
(assert
 (let (($x5439 (= cell_9_8 1)))
 (or $x5439 (= cell_9_8 2) (= cell_9_8 3) (= cell_9_8 4) (= cell_9_8 5) (= cell_9_8 6) (= cell_9_8 7) (= cell_9_8 8) (= cell_9_8 9))))
(assert
 (let (($x87 (= cell_1_9 9)))
 (let (($x5215 (= cell_1_9 8)))
 (let (($x5766 (= cell_1_9 7)))
 (let (($x7746 (= cell_1_9 6)))
 (let (($x2125 (= cell_1_9 5)))
 (let (($x6310 (= cell_1_9 4)))
 (let (($x9497 (= cell_1_9 3)))
 (let (($x7075 (= cell_1_9 2)))
 (let (($x7650 (= cell_1_9 1)))
 (or $x7650 $x7075 $x9497 $x6310 $x2125 $x7746 $x5766 $x5215 $x87)))))))))))
(assert
 (let (($x4092 (= cell_2_9 1)))
 (or $x4092 (= cell_2_9 2) (= cell_2_9 3) (= cell_2_9 4) (= cell_2_9 5) (= cell_2_9 6) (= cell_2_9 7) (= cell_2_9 8) (= cell_2_9 9))))
(assert
 (let (($x3760 (= cell_3_9 1)))
 (or $x3760 (= cell_3_9 2) (= cell_3_9 3) (= cell_3_9 4) (= cell_3_9 5) (= cell_3_9 6) (= cell_3_9 7) (= cell_3_9 8) (= cell_3_9 9))))
(assert
 (let (($x8970 (= cell_4_9 1)))
 (or $x8970 (= cell_4_9 2) (= cell_4_9 3) (= cell_4_9 4) (= cell_4_9 5) (= cell_4_9 6) (= cell_4_9 7) (= cell_4_9 8) (= cell_4_9 9))))
(assert
 (let (($x6584 (= cell_5_9 1)))
 (or $x6584 (= cell_5_9 2) (= cell_5_9 3) (= cell_5_9 4) (= cell_5_9 5) (= cell_5_9 6) (= cell_5_9 7) (= cell_5_9 8) (= cell_5_9 9))))
(assert
 (let (($x4048 (= cell_6_9 1)))
 (or $x4048 (= cell_6_9 2) (= cell_6_9 3) (= cell_6_9 4) (= cell_6_9 5) (= cell_6_9 6) (= cell_6_9 7) (= cell_6_9 8) (= cell_6_9 9))))
(assert
 (let (($x4347 (= cell_7_9 9)))
 (let (($x5799 (= cell_7_9 8)))
 (let (($x666 (= cell_7_9 7)))
 (let (($x4548 (= cell_7_9 6)))
 (let (($x65 (= cell_7_9 5)))
 (let (($x1046 (= cell_7_9 4)))
 (let (($x1033 (= cell_7_9 3)))
 (let (($x9309 (= cell_7_9 2)))
 (let (($x9265 (= cell_7_9 1)))
 (or $x9265 $x9309 $x1033 $x1046 $x65 $x4548 $x666 $x5799 $x4347)))))))))))
(assert
 (let (($x8228 (= cell_8_9 2)))
 (let (($x8077 (= cell_8_9 1)))
 (or $x8077 $x8228 (= cell_8_9 3) (= cell_8_9 4) (= cell_8_9 5) (= cell_8_9 6) (= cell_8_9 7) (= cell_8_9 8) (= cell_8_9 9)))))
(assert
 (let (($x5542 (= cell_9_9 1)))
 (or $x5542 (= cell_9_9 2) (= cell_9_9 3) (= cell_9_9 4) (= cell_9_9 5) (= cell_9_9 6) (= cell_9_9 7) (= cell_9_9 8) (= cell_9_9 9))))
(assert
 (and (distinct cell_1_1 cell_1_2 cell_1_3 cell_1_4 cell_1_5 cell_1_6 cell_1_7 cell_1_8 cell_1_9) true))
(assert
 (and (distinct cell_2_1 cell_2_2 cell_2_3 cell_2_4 cell_2_5 cell_2_6 cell_2_7 cell_2_8 cell_2_9) true))
(assert
 (and (distinct cell_3_1 cell_3_2 cell_3_3 cell_3_4 cell_3_5 cell_3_6 cell_3_7 cell_3_8 cell_3_9) true))
(assert
 (and (distinct cell_4_1 cell_4_2 cell_4_3 cell_4_4 cell_4_5 cell_4_6 cell_4_7 cell_4_8 cell_4_9) true))
(assert
 (and (distinct cell_5_1 cell_5_2 cell_5_3 cell_5_4 cell_5_5 cell_5_6 cell_5_7 cell_5_8 cell_5_9) true))
(assert
 (and (distinct cell_6_1 cell_6_2 cell_6_3 cell_6_4 cell_6_5 cell_6_6 cell_6_7 cell_6_8 cell_6_9) true))
(assert
 (and (distinct cell_7_1 cell_7_2 cell_7_3 cell_7_4 cell_7_5 cell_7_6 cell_7_7 cell_7_8 cell_7_9) true))
(assert
 (and (distinct cell_8_1 cell_8_2 cell_8_3 cell_8_4 cell_8_5 cell_8_6 cell_8_7 cell_8_8 cell_8_9) true))
(assert
 (and (distinct cell_9_1 cell_9_2 cell_9_3 cell_9_4 cell_9_5 cell_9_6 cell_9_7 cell_9_8 cell_9_9) true))
(assert
 (and (distinct cell_1_1 cell_2_1 cell_3_1 cell_4_1 cell_5_1 cell_6_1 cell_7_1 cell_8_1 cell_9_1) true))
(assert
 (and (distinct cell_1_2 cell_2_2 cell_3_2 cell_4_2 cell_5_2 cell_6_2 cell_7_2 cell_8_2 cell_9_2) true))
(assert
 (and (distinct cell_1_3 cell_2_3 cell_3_3 cell_4_3 cell_5_3 cell_6_3 cell_7_3 cell_8_3 cell_9_3) true))
(assert
 (and (distinct cell_1_4 cell_2_4 cell_3_4 cell_4_4 cell_5_4 cell_6_4 cell_7_4 cell_8_4 cell_9_4) true))
(assert
 (and (distinct cell_1_5 cell_2_5 cell_3_5 cell_4_5 cell_5_5 cell_6_5 cell_7_5 cell_8_5 cell_9_5) true))
(assert
 (and (distinct cell_1_6 cell_2_6 cell_3_6 cell_4_6 cell_5_6 cell_6_6 cell_7_6 cell_8_6 cell_9_6) true))
(assert
 (and (distinct cell_1_7 cell_2_7 cell_3_7 cell_4_7 cell_5_7 cell_6_7 cell_7_7 cell_8_7 cell_9_7) true))
(assert
 (and (distinct cell_1_8 cell_2_8 cell_3_8 cell_4_8 cell_5_8 cell_6_8 cell_7_8 cell_8_8 cell_9_8) true))
(assert
 (and (distinct cell_1_9 cell_2_9 cell_3_9 cell_4_9 cell_5_9 cell_6_9 cell_7_9 cell_8_9 cell_9_9) true))
(assert
 (and (distinct cell_1_1 cell_1_2 cell_1_3 cell_2_1 cell_2_2 cell_2_3 cell_3_1 cell_3_2 cell_3_3) true))
(assert
 (and (distinct cell_1_4 cell_1_5 cell_1_6 cell_2_4 cell_2_5 cell_2_6 cell_3_4 cell_3_5 cell_3_6) true))
(assert
 (and (distinct cell_1_7 cell_1_8 cell_1_9 cell_2_7 cell_2_8 cell_2_9 cell_3_7 cell_3_8 cell_3_9) true))
(assert
 (and (distinct cell_4_1 cell_4_2 cell_4_3 cell_5_1 cell_5_2 cell_5_3 cell_6_1 cell_6_2 cell_6_3) true))
(assert
 (and (distinct cell_4_4 cell_4_5 cell_4_6 cell_5_4 cell_5_5 cell_5_6 cell_6_4 cell_6_5 cell_6_6) true))
(assert
 (and (distinct cell_4_7 cell_4_8 cell_4_9 cell_5_7 cell_5_8 cell_5_9 cell_6_7 cell_6_8 cell_6_9) true))
(assert
 (and (distinct cell_7_1 cell_7_2 cell_7_3 cell_8_1 cell_8_2 cell_8_3 cell_9_1 cell_9_2 cell_9_3) true))
(assert
 (and (distinct cell_7_4 cell_7_5 cell_7_6 cell_8_4 cell_8_5 cell_8_6 cell_9_4 cell_9_5 cell_9_6) true))
(assert
 (and (distinct cell_7_7 cell_7_8 cell_7_9 cell_8_7 cell_8_8 cell_8_9 cell_9_7 cell_9_8 cell_9_9) true))
(assert
 (let (($x9066 (and (distinct cell_5_9 cell_6_8 cell_7_7 cell_8_6) true)))
 (let (($x2536 (and (distinct cell_2_9 cell_3_8 cell_4_7 cell_5_6 cell_6_5 cell_7_4 cell_8_3 cell_9_2) true)))
 (let (($x36 (and (distinct cell_1_8 cell_2_7 cell_3_6 cell_4_5 cell_5_4 cell_6_3 cell_7_2 cell_8_1) true)))
 (let (($x4110 (and (distinct cell_1_5 cell_2_4 cell_3_3 cell_4_2) true)))
 (let (($x7773 (and (distinct cell_5_1 cell_6_2 cell_7_3 cell_8_4) true)))
 (let (($x105 (and (distinct cell_2_1 cell_3_2 cell_4_3 cell_5_4 cell_6_5 cell_7_6 cell_8_7 cell_9_8) true)))
 (let (($x1061 (and (distinct cell_1_2 cell_2_3 cell_3_4 cell_4_5 cell_5_6 cell_6_7 cell_7_8 cell_8_9) true)))
 (let (($x4904 (and (distinct cell_1_5 cell_2_6 cell_3_7 cell_4_8) true)))
 (and $x4904 $x1061 $x105 $x7773 $x4110 $x36 $x2536 $x9066))))))))))
(assert
 (= cell_2_5 2))
(check-sat)
